s td 25 30 56
b 1 1 4 8 10 11 12 14 18 19 20 21 23 25 26 30 31 33 34 37 39 40 41 42 44 46 47 52 53 54 56
b 2 3 4 8 10 11 12 14 18 19 20 23 25 26 30 31 33 34 37 39 40 41 42 44 46 47 52 53 54 56
b 3 3 4 8 10 12 14 18 19 20 23 25 26 30 33 34 37 40 42 44 46 47 51 52 53 54 56
b 4 2 3 4 8 10 12 14 18 19 20 23 25 30 34 40 42 44 46 47 51 52 53 54 56
b 5 2 8 10 14 18 19 20 24 30 34 40 42 44 46 51 52 53 54 56
b 6 2 5 8 14 18 20 24 34 40 51 52
b 7 3 8 10 12 26 30 33 44 47 49 56
b 8 1 4 8 10 11 12 14 18 19 20 21 23 25 26 29 30 31 33 34 37 38 39 40 41 42 46 47 52 53 54
b 9 1 4 8 10 11 12 14 18 19 20 25 26 29 30 31 33 34 37 38 39 40 41 42 46 47 48 52 53 54
b 10 6 10 11 29 31 38 40 42 48 53 54
b 11 1 4 8 9 10 11 12 18 19 25 26 29 30 31 34 37 38 39 40 41 42 46 48 52 53 54
b 12 1 4 8 9 10 12 18 19 22 25 26 29 30 31 34 38 39 40 41 42 46 48 52 54
b 13 1 4 12 22 25 29 31 34 42 43 48
b 14 8 10 12 18 22 26 29 34 38 40 50
b 15 4 7 8 19 23 30 33 37 46 47 54
b 16 1 4 8 10 11 12 14 15 18 19 20 21 23 25 26 30 31 33 34 36 37 39 40 41 42 46 47 52 53 54
b 17 1 4 8 10 12 14 15 18 20 21 23 25 26 30 31 32 33 34 36 37 39 40 41 42 46 47 52 53 54
b 18 1 4 8 10 12 13 14 15 20 21 23 25 26 31 32 34 36 37 39 41 42 46 47 52 53 54
b 19 1 4 8 10 12 13 14 15 20 21 23 25 26 27 31 32 34 36 37 41 46 47 52 53
b 20 1 4 13 14 16 21 23 25 26 27 31 32 34 36 37 41 46 47 53
b 21 14 16 21 25 26 32 36 37 41 45 53
b 22 4 12 15 17 20 21 25 32 36 39 42
b 23 4 8 14 20 21 28 37 39 41 52 54
b 24 1 4 8 11 18 31 34 35 37 40 54
b 25 4 8 10 12 25 26 37 42 53 54 55
1 2
1 8
1 15
1 16
1 23
1 24
1 25
2 3
2 7
3 4
4 5
5 6
8 9
9 10
9 11
11 12
12 13
12 14
16 17
17 18
17 22
18 19
19 20
20 21
